\ LP format - for model browsing. Use MPS format to capture full model detail.
Minimize
  0 B12(0) + 0 B19(0) + 0 B24(0) + 0 B25(0) + 0 B26(0) + 0 B30(0) + 0 B31(0)
   + 0 B33(0) + 0 B36(0) + 0 B37(0) + 0 B38(0) + 0 B39(0) + 0 B40(0)
   + 0 B42(0) + 0 B43(0) + 0 B44(0) + 0 B45(0) + 0 B47(0) + I60(1)
Subject To
 c0: - 64 B0(15) - 71 B1(15) - 36 B4(15) - 21 B5(15) - 43 B8(15)
   - 37 B9(15) - I48(16) - I49(16) - I52(16) - I53(16) - I56(16) - I57(16)
   + I60(1) >= 0
 c1: B0(15) + B1(15) = 1
 c2: B2(16) + B3(16) = 1
 c3: B4(15) + B5(15) = 1
 c4: B6(16) + B7(16) = 1
 c5: B8(15) + B9(15) = 1
 c6: B10(16) + B11(16) = 1
 c7: - 1e+07 B0(15) + I48(16) <= 0
 c8: - 1e+07 B1(15) + I49(16) <= 0
 c9: - 1e+07 B2(16) + I50(16) <= 0
 c10: - 1e+07 B3(16) + I51(16) <= 0
 c11: - 1e+07 B4(15) + I52(16) <= 0
 c12: - 1e+07 B5(15) + I53(16) <= 0
 c13: - 1e+07 B6(16) + I54(16) <= 0
 c14: - 1e+07 B7(16) + I55(16) <= 0
 c15: - 1e+07 B8(15) + I56(16) <= 0
 c16: - 1e+07 B9(15) + I57(16) <= 0
 c17: - 1e+07 B10(16) + I58(16) <= 0
 c18: - 1e+07 B11(16) + I59(16) <= 0
 c19: - 43 B2(16) - 36 B3(16) + I48(16) + I49(16) - I50(16) - I51(16) >= 0
 c20: - 34 B6(16) - 53 B7(16) + I52(16) + I53(16) - I54(16) - I55(16) >= 0
 c21: - 21 B10(16) - 35 B11(16) + I56(16) + I57(16) - I58(16) - I59(16)
   >= 0
 c22: - 1e+07 B0(15) - 1e+07 B2(16) + 1e+07 B13(4) - I48(16) + I50(16)
   >= -1.9999777e+07
 c23: - 1e+07 B0(15) - 1e+07 B2(16) - 1e+07 B13(4) + I48(16) - I50(16)
   >= -2.9999876e+07
 c24: - 1e+07 B1(15) - 1e+07 B3(16) + 1e+07 B13(4) - I49(16) + I51(16)
   >= -1.9999745e+07
 c25: - 1e+07 B1(15) - 1e+07 B3(16) - 1e+07 B13(4) + I49(16) - I51(16)
   >= -2.99999e+07
 c26: - 1e+07 B0(15) - 1e+07 B4(15) + 1e+07 B14(4) - I48(16) + I52(16)
   >= -1.9999783e+07
 c27: - 1e+07 B0(15) - 1e+07 B4(15) - 1e+07 B14(4) + I48(16) - I52(16)
   >= -2.9999904e+07
 c28: - 1e+07 B1(15) - 1e+07 B5(15) + 1e+07 B14(4) - I49(16) + I53(16)
   >= -1.9999755e+07
 c29: - 1e+07 B1(15) - 1e+07 B5(15) - 1e+07 B14(4) + I49(16) - I53(16)
   >= -2.9999811e+07
 c30: - 1e+07 B0(15) - 1e+07 B6(16) + 1e+07 B15(4) - I48(16) + I54(16)
   >= -1.999983e+07
 c31: - 1e+07 B0(15) - 1e+07 B6(16) - 1e+07 B15(4) + I48(16) - I54(16)
   >= -2.9999768e+07
 c32: - 1e+07 B1(15) - 1e+07 B7(16) + 1e+07 B15(4) - I49(16) + I55(16)
   >= -1.9999851e+07
 c33: - 1e+07 B1(15) - 1e+07 B7(16) - 1e+07 B15(4) + I49(16) - I55(16)
   >= -2.9999891e+07
 c34: - 1e+07 B0(15) - 1e+07 B8(15) + 1e+07 B16(4) - I48(16) + I56(16)
   >= -1.9999798e+07
 c35: - 1e+07 B0(15) - 1e+07 B8(15) - 1e+07 B16(4) + I48(16) - I56(16)
   >= -2.9999804e+07
 c36: - 1e+07 B1(15) - 1e+07 B9(15) + 1e+07 B16(4) - I49(16) + I57(16)
   >= -1.9999869e+07
 c37: - 1e+07 B1(15) - 1e+07 B9(15) - 1e+07 B16(4) + I49(16) - I57(16)
   >= -2.9999937e+07
 c38: - 1e+07 B0(15) - 1e+07 B10(16) + 1e+07 B17(4) - I48(16) + I58(16)
   >= -1.9999771e+07
 c39: - 1e+07 B0(15) - 1e+07 B10(16) - 1e+07 B17(4) + I48(16) - I58(16)
   >= -2.9999901e+07
 c40: - 1e+07 B1(15) - 1e+07 B11(16) + 1e+07 B17(4) - I49(16) + I59(16)
   >= -1.9999779e+07
 c41: - 1e+07 B1(15) - 1e+07 B11(16) - 1e+07 B17(4) + I49(16) - I59(16)
   >= -2.9999785e+07
 c42: - 1e+07 B0(15) - 1e+07 B2(16) + 1e+07 B18(4) + I48(16) - I50(16)
   >= -1.9999876e+07
 c43: - 1e+07 B0(15) - 1e+07 B2(16) - 1e+07 B18(4) - I48(16) + I50(16)
   >= -2.9999777e+07
 c44: - 1e+07 B1(15) - 1e+07 B3(16) + 1e+07 B18(4) + I49(16) - I51(16)
   >= -1.99999e+07
 c45: - 1e+07 B1(15) - 1e+07 B3(16) - 1e+07 B18(4) - I49(16) + I51(16)
   >= -2.9999745e+07
 c46: - 1e+07 B2(16) - 1e+07 B4(15) + 1e+07 B20(4) - I50(16) + I52(16)
   >= -1.9999813e+07
 c47: - 1e+07 B2(16) - 1e+07 B4(15) - 1e+07 B20(4) + I50(16) - I52(16)
   >= -2.999983e+07
 c48: - 1e+07 B3(16) - 1e+07 B5(15) + 1e+07 B20(4) - I51(16) + I53(16)
   >= -1.9999784e+07
 c49: - 1e+07 B3(16) - 1e+07 B5(15) - 1e+07 B20(4) + I51(16) - I53(16)
   >= -2.9999781e+07
 c50: - 1e+07 B2(16) - 1e+07 B6(16) + 1e+07 B21(4) - I50(16) + I54(16)
   >= -1.9999845e+07
 c51: - 1e+07 B2(16) - 1e+07 B6(16) - 1e+07 B21(4) + I50(16) - I54(16)
   >= -2.9999801e+07
 c52: - 1e+07 B3(16) - 1e+07 B7(16) + 1e+07 B21(4) - I51(16) + I55(16)
   >= -1.9999768e+07
 c53: - 1e+07 B3(16) - 1e+07 B7(16) - 1e+07 B21(4) + I51(16) - I55(16)
   >= -2.9999829e+07
 c54: - 1e+07 B2(16) - 1e+07 B8(15) + 1e+07 B22(4) - I50(16) + I56(16)
   >= -1.9999772e+07
 c55: - 1e+07 B2(16) - 1e+07 B8(15) - 1e+07 B22(4) + I50(16) - I56(16)
   >= -2.9999897e+07
 c56: - 1e+07 B3(16) - 1e+07 B9(15) + 1e+07 B22(4) - I51(16) + I57(16)
   >= -1.9999908e+07
 c57: - 1e+07 B3(16) - 1e+07 B9(15) - 1e+07 B22(4) + I51(16) - I57(16)
   >= -2.9999937e+07
 c58: - 1e+07 B2(16) - 1e+07 B10(16) + 1e+07 B23(4) - I50(16) + I58(16)
   >= -1.9999931e+07
 c59: - 1e+07 B2(16) - 1e+07 B10(16) - 1e+07 B23(4) + I50(16) - I58(16)
   >= -2.9999927e+07
 c60: - 1e+07 B3(16) - 1e+07 B11(16) + 1e+07 B23(4) - I51(16) + I59(16)
   >= -1.99997e+07
 c61: - 1e+07 B3(16) - 1e+07 B11(16) - 1e+07 B23(4) + I51(16) - I59(16)
   >= -2.999966e+07
 c62: - 1e+07 B4(15) - 1e+07 B6(16) + 1e+07 B27(4) - I52(16) + I54(16)
   >= -1.9999904e+07
 c63: - 1e+07 B4(15) - 1e+07 B6(16) - 1e+07 B27(4) + I52(16) - I54(16)
   >= -2.9999676e+07
 c64: - 1e+07 B5(15) - 1e+07 B7(16) + 1e+07 B27(4) - I53(16) + I55(16)
   >= -1.9999734e+07
 c65: - 1e+07 B5(15) - 1e+07 B7(16) - 1e+07 B27(4) + I53(16) - I55(16)
   >= -2.99998e+07
 c66: - 1e+07 B4(15) - 1e+07 B8(15) + 1e+07 B28(4) - I52(16) + I56(16)
   >= -1.9999938e+07
 c67: - 1e+07 B4(15) - 1e+07 B8(15) - 1e+07 B28(4) + I52(16) - I56(16)
   >= -2.9999637e+07
 c68: - 1e+07 B5(15) - 1e+07 B9(15) + 1e+07 B28(4) - I53(16) + I57(16)
   >= -1.999982e+07
 c69: - 1e+07 B5(15) - 1e+07 B9(15) - 1e+07 B28(4) + I53(16) - I57(16)
   >= -2.9999699e+07
 c70: - 1e+07 B4(15) - 1e+07 B10(16) + 1e+07 B29(4) - I52(16) + I58(16)
   >= -1.9999856e+07
 c71: - 1e+07 B4(15) - 1e+07 B10(16) - 1e+07 B29(4) + I52(16) - I58(16)
   >= -2.999988e+07
 c72: - 1e+07 B5(15) - 1e+07 B11(16) + 1e+07 B29(4) - I53(16) + I59(16)
   >= -1.9999811e+07
 c73: - 1e+07 B5(15) - 1e+07 B11(16) - 1e+07 B29(4) + I53(16) - I59(16)
   >= -2.9999921e+07
 c74: - 1e+07 B4(15) - 1e+07 B6(16) + 1e+07 B32(4) + I52(16) - I54(16)
   >= -1.9999676e+07
 c75: - 1e+07 B4(15) - 1e+07 B6(16) - 1e+07 B32(4) - I52(16) + I54(16)
   >= -2.9999904e+07
 c76: - 1e+07 B5(15) - 1e+07 B7(16) + 1e+07 B32(4) + I53(16) - I55(16)
   >= -1.99998e+07
 c77: - 1e+07 B5(15) - 1e+07 B7(16) - 1e+07 B32(4) - I53(16) + I55(16)
   >= -2.9999734e+07
 c78: - 1e+07 B6(16) - 1e+07 B8(15) + 1e+07 B34(4) - I54(16) + I56(16)
   >= -1.9999786e+07
 c79: - 1e+07 B6(16) - 1e+07 B8(15) - 1e+07 B34(4) + I54(16) - I56(16)
   >= -2.9999767e+07
 c80: - 1e+07 B7(16) - 1e+07 B9(15) + 1e+07 B34(4) - I55(16) + I57(16)
   >= -1.9999851e+07
 c81: - 1e+07 B7(16) - 1e+07 B9(15) - 1e+07 B34(4) + I55(16) - I57(16)
   >= -2.9999783e+07
 c82: - 1e+07 B6(16) - 1e+07 B10(16) + 1e+07 B35(4) - I54(16) + I58(16)
   >= -1.9999902e+07
 c83: - 1e+07 B6(16) - 1e+07 B10(16) - 1e+07 B35(4) + I54(16) - I58(16)
   >= -2.9999895e+07
 c84: - 1e+07 B7(16) - 1e+07 B11(16) + 1e+07 B35(4) - I55(16) + I59(16)
   >= -1.9999887e+07
 c85: - 1e+07 B7(16) - 1e+07 B11(16) - 1e+07 B35(4) + I55(16) - I59(16)
   >= -2.9999877e+07
 c86: - 1e+07 B8(15) - 1e+07 B10(16) + 1e+07 B41(4) - I56(16) + I58(16)
   >= -1.9999767e+07
 c87: - 1e+07 B8(15) - 1e+07 B10(16) - 1e+07 B41(4) + I56(16) - I58(16)
   >= -2.9999895e+07
 c88: - 1e+07 B9(15) - 1e+07 B11(16) + 1e+07 B41(4) - I57(16) + I59(16)
   >= -1.9999755e+07
 c89: - 1e+07 B9(15) - 1e+07 B11(16) - 1e+07 B41(4) + I57(16) - I59(16)
   >= -2.9999869e+07
 c90: - 1e+07 B8(15) - 1e+07 B10(16) + 1e+07 B46(4) + I56(16) - I58(16)
   >= -1.9999895e+07
 c91: - 1e+07 B8(15) - 1e+07 B10(16) - 1e+07 B46(4) - I56(16) + I58(16)
   >= -2.9999767e+07
 c92: - 1e+07 B9(15) - 1e+07 B11(16) + 1e+07 B46(4) + I57(16) - I59(16)
   >= -1.9999869e+07
 c93: - 1e+07 B9(15) - 1e+07 B11(16) - 1e+07 B46(4) - I57(16) + I59(16)
   >= -2.9999755e+07
 c94: I48(16) >= 0
 c95: I49(16) >= 0
 c96: - 480 B2(16) + I50(16) >= 0
 c97: I50(16) >= 0
 c98: - 480 B3(16) + I51(16) >= 0
 c99: I51(16) >= 0
 c100: I52(16) >= 0
 c101: I53(16) >= 0
 c102: - 480 B6(16) + I54(16) >= 0
 c103: I54(16) >= 0
 c104: - 480 B7(16) + I55(16) >= 0
 c105: I55(16) >= 0
 c106: I56(16) >= 0
 c107: I57(16) >= 0
 c108: - 480 B10(16) + I58(16) >= 0
 c109: I58(16) >= 0
 c110: - 480 B11(16) + I59(16) >= 0
 c111: I59(16) >= 0
Bounds
Binaries
 B0(15) B1(15) B2(16) B3(16) B4(15) B5(15) B6(16) B7(16) B8(15) B9(15)
 B10(16) B11(16) B12(0) B13(4) B14(4) B15(4) B16(4) B17(4) B18(4) B19(0)
 B20(4) B21(4) B22(4) B23(4) B24(0) B25(0) B26(0) B27(4) B28(4) B29(4)
 B30(0) B31(0) B32(4) B33(0) B34(4) B35(4) B36(0) B37(0) B38(0) B39(0)
 B40(0) B41(4) B42(0) B43(0) B44(0) B45(0) B46(4) B47(0)
Generals
 I48(16) I49(16) I50(16) I51(16) I52(16) I53(16) I54(16) I55(16) I56(16)
 I57(16) I58(16) I59(16) I60(1)
End
